matrix = [|
  9, 15, 16, 25, 12, 26, 5, 4, 0, 0, 0, 0, 0, 0, 0, 0, 0, 0, 0, 0, 0, 0, 0, 0, 0, 0, 0, 0, 0, 0, 0, 0, 0, 0, 0 |
  26, 22, 32, 4, 13, 23, 27, 18, 34, 29, 8, 5, 0, 0, 0, 0, 0, 0, 0, 0, 0, 0, 0, 0, 0, 0, 0, 0, 0, 0, 0, 0, 0, 0, 0 |
  4, 5, 16, 9, 25, 29, 26, 30, 23, 33, 1, 11, 27, 32, 3, 17, 2, 13, 24, 19, 12, 0, 0, 0, 0, 0, 0, 0, 0, 0, 0, 0, 0, 0, 0 |
  15, 25, 34, 17, 29, 21, 23, 12, 8, 22, 11, 5, 20, 14, 28, 30, 18, 24, 9, 0, 0, 0, 0, 0, 0, 0, 0, 0, 0, 0, 0, 0, 0, 0, 0 |
  17, 16, 4, 24, 20, 25, 27, 12, 19, 8, 0, 0, 0, 0, 0, 0, 0, 0, 0, 0, 0, 0, 0, 0, 0, 0, 0, 0, 0, 0, 0, 0, 0, 0, 0 |
  34, 26, 8, 27, 13, 21, 11, 14, 19, 1, 12, 16, 0, 0, 0, 0, 0, 0, 0, 0, 0, 0, 0, 0, 0, 0, 0, 0, 0, 0, 0, 0, 0, 0, 0 |
  31, 5, 15, 16, 23, 6, 33, 10, 18, 19, 13, 22, 25, 20, 30, 24, 9, 26, 27, 0, 0, 0, 0, 0, 0, 0, 0, 0, 0, 0, 0, 0, 0, 0, 0 |
  32, 11, 20, 12, 3, 19, 1, 13, 30, 18, 31, 29, 16, 33, 6, 22, 0, 0, 0, 0, 0, 0, 0, 0, 0, 0, 0, 0, 0, 0, 0, 0, 0, 0, 0 |
  33, 9, 30, 20, 2, 26, 16, 19, 1, 4, 23, 31, 29, 15, 0, 0, 0, 0, 0, 0, 0, 0, 0, 0, 0, 0, 0, 0, 0, 0, 0, 0, 0, 0, 0 |
  34, 10, 32, 30, 2, 15, 26, 29, 27, 25, 11, 23, 3, 5, 18, 31, 8, 1, 6, 24, 17, 0, 0, 0, 0, 0, 0, 0, 0, 0, 0, 0, 0, 0, 0 |
  6, 32, 33, 29, 26, 11, 4, 31, 12, 30, 25, 0, 0, 0, 0, 0, 0, 0, 0, 0, 0, 0, 0, 0, 0, 0, 0, 0, 0, 0, 0, 0, 0, 0, 0 |
  6, 30, 1, 4, 26, 14, 29, 0, 0, 0, 0, 0, 0, 0, 0, 0, 0, 0, 0, 0, 0, 0, 0, 0, 0, 0, 0, 0, 0, 0, 0, 0, 0, 0, 0 |
  11, 25, 1, 10, 23, 5, 29, 24, 34, 8, 17, 6, 3, 16, 27, 30, 19, 4, 9, 0, 0, 0, 0, 0, 0, 0, 0, 0, 0, 0, 0, 0, 0, 0, 0 |
  18, 4, 30, 13, 8, 5, 2, 27, 0, 0, 0, 0, 0, 0, 0, 0, 0, 0, 0, 0, 0, 0, 0, 0, 0, 0, 0, 0, 0, 0, 0, 0, 0, 0, 0 |
  26, 10, 33, 11, 27, 16, 24, 13, 15, 9, 12, 19, 3, 18, 2, 4, 0, 0, 0, 0, 0, 0, 0, 0, 0, 0, 0, 0, 0, 0, 0, 0, 0, 0, 0 |
  3, 29, 4, 2, 32, 26, 18, 0, 0, 0, 0, 0, 0, 0, 0, 0, 0, 0, 0, 0, 0, 0, 0, 0, 0, 0, 0, 0, 0, 0, 0, 0, 0, 0, 0 |
  4, 1, 19, 2, 11, 15, 3, 26, 13, 10, 24, 0, 0, 0, 0, 0, 0, 0, 0, 0, 0, 0, 0, 0, 0, 0, 0, 0, 0, 0, 0, 0, 0, 0, 0 |
  26, 33, 4, 24, 9, 31, 27, 19, 10, 30, 25, 23, 12, 17, 34, 2, 0, 0, 0, 0, 0, 0, 0, 0, 0, 0, 0, 0, 0, 0, 0, 0, 0, 0, 0 |
  25, 32, 31, 30, 11, 9, 1, 24, 34, 23, 18, 26, 3, 6, 22, 15, 29, 2, 20, 17, 0, 0, 0, 0, 0, 0, 0, 0, 0, 0, 0, 0, 0, 0, 0 |
  9, 30, 11, 33, 8, 13, 25, 29, 24, 12, 1, 6, 17, 32, 18, 27, 23, 16, 3, 0, 0, 0, 0, 0, 0, 0, 0, 0, 0, 0, 0, 0, 0, 0, 0 |
  24, 30, 12, 9, 4, 20, 15, 11, 33, 17, 6, 34, 16, 31, 19, 29, 22, 1, 2, 26, 25, 0, 0, 0, 0, 0, 0, 0, 0, 0, 0, 0, 0, 0, 0 |
  7, 14, 20, 21, 3, 16, 2, 32, 27, 19, 26, 35, 17, 11, 22, 6, 30, 18, 5, 0, 0, 0, 0, 0, 0, 0, 0, 0, 0, 0, 0, 0, 0, 0, 0 |
  34, 32, 9, 27, 25, 10, 3, 29, 4, 15, 19, 23, 24, 22, 13, 17, 11, 26, 2, 20, 16, 0, 0, 0, 0, 0, 0, 0, 0, 0, 0, 0, 0, 0, 0 |
  24, 23, 17, 13, 16, 12, 30, 19, 4, 27, 18, 22, 20, 9, 26, 33, 34, 3, 0, 0, 0, 0, 0, 0, 0, 0, 0, 0, 0, 0, 0, 0, 0, 0, 0 |
  32, 5, 10, 1, 12, 11, 22, 8, 9, 6, 15, 24, 29, 33, 30, 17, 13, 2, 31, 16, 19, 0, 0, 0, 0, 0, 0, 0, 0, 0, 0, 0, 0, 0, 0 |
  7, 14, 24, 4, 30, 1, 12, 29, 13, 6, 20, 5, 17, 3, 35, 15, 32, 0, 0, 0, 0, 0, 0, 0, 0, 0, 0, 0, 0, 0, 0, 0, 0, 0, 0 |
  3, 1, 26, 18, 30, 22, 31, 24, 2, 5, 6, 4, 20, 11, 29, 19, 15, 17, 33, 25, 0, 0, 0, 0, 0, 0, 0, 0, 0, 0, 0, 0, 0, 0, 0 |
  18, 9, 5, 27, 16, 19, 30, 6, 1, 24, 3, 26, 4, 8, 31, 13, 2, 25, 32, 11, 29, 0, 0, 0, 0, 0, 0, 0, 0, 0, 0, 0, 0, 0, 0 |
  32, 15, 24, 16, 5, 3, 34, 25, 10, 11, 22, 12, 1, 33, 4, 27, 26, 13, 23, 2, 0, 0, 0, 0, 0, 0, 0, 0, 0, 0, 0, 0, 0, 0, 0 |
  34, 22, 16, 23, 12, 19, 32, 13, 25, 0, 0, 0, 0, 0, 0, 0, 0, 0, 0, 0, 0, 0, 0, 0, 0, 0, 0, 0, 0, 0, 0, 0, 0, 0, 0 |
  29, 8, 17, 11, 9, 32, 27, 31, 15, 1, 10, 0, 0, 0, 0, 0, 0, 0, 0, 0, 0, 0, 0, 0, 0, 0, 0, 0, 0, 0, 0, 0, 0, 0, 0 |
  22, 9, 26, 10, 17, 27, 32, 4, 0, 0, 0, 0, 0, 0, 0, 0, 0, 0, 0, 0, 0, 0, 0, 0, 0, 0, 0, 0, 0, 0, 0, 0, 0, 0, 0 |
  19, 31, 18, 15, 25, 26, 4, 34, 11, 33, 13, 29, 0, 0, 0, 0, 0, 0, 0, 0, 0, 0, 0, 0, 0, 0, 0, 0, 0, 0, 0, 0, 0, 0, 0 |
  29, 13, 26, 21, 5, 32, 4, 34, 23, 8, 6, 22, 0, 0, 0, 0, 0, 0, 0, 0, 0, 0, 0, 0, 0, 0, 0, 0, 0, 0, 0, 0, 0, 0, 0 |
  13, 20, 12, 10, 8, 17, 23, 0, 0, 0, 0, 0, 0, 0, 0, 0, 0, 0, 0, 0, 0, 0, 0, 0, 0, 0, 0, 0, 0, 0, 0, 0, 0, 0, 0 |
  6, 9, 20, 27, 33, 19, 15, 10, 3, 2, 1, 5, 17, 0, 0, 0, 0, 0, 0, 0, 0, 0, 0, 0, 0, 0, 0, 0, 0, 0, 0, 0, 0, 0, 0 |
  24, 29, 3, 27, 19, 2, 12, 30, 34, 20, 6, 31, 15, 11, 5, 0, 0, 0, 0, 0, 0, 0, 0, 0, 0, 0, 0, 0, 0, 0, 0, 0, 0, 0, 0 |
  16, 31, 13, 35, 32, 4, 18, 27, 20, 3, 29, 12, 24, 6, 1, 0, 0, 0, 0, 0, 0, 0, 0, 0, 0, 0, 0, 0, 0, 0, 0, 0, 0, 0, 0 |
  34, 4, 24, 13, 26, 15, 11, 1, 25, 8, 0, 0, 0, 0, 0, 0, 0, 0, 0, 0, 0, 0, 0, 0, 0, 0, 0, 0, 0, 0, 0, 0, 0, 0, 0 |
  22, 8, 3, 31, 20, 12, 34, 17, 32, 24, 6, 30, 23, 29, 11, 33, 26, 1, 15, 0, 0, 0, 0, 0, 0, 0, 0, 0, 0, 0, 0, 0, 0, 0, 0 |
|];
